<?xml version="1.0" encoding="UTF-8" standalone="no"?>
   <instance format="XCSP3" type="CSP"> <variables><var id="start_j1">0..100000000</var>
<var id="start_j2">0..100000000</var>
<var id="start_j3">0..100000000</var>
<var id="start_j4">0..100000000</var>
<var id="start_j5">0..100000000</var>
<var id="start_j6">0..100000000</var>
<var id="start_j7">0..100000000</var>
<var id="start_j8">0..100000000</var>
<var id="task_1_runs_when_2_starts">0..1</var>
<var id="task_1_runs_when_3_starts">0..1</var>
<var id="task_1_runs_when_4_starts">0..1</var>
<var id="task_1_runs_when_5_starts">0..1</var>
<var id="task_1_runs_when_6_starts">0..1</var>
<var id="task_1_runs_when_7_starts">0..1</var>
<var id="task_1_runs_when_8_starts">0..1</var>
<var id="task_2_runs_when_1_starts">0..1</var>
<var id="task_2_runs_when_3_starts">0..1</var>
<var id="task_2_runs_when_4_starts">0..1</var>
<var id="task_2_runs_when_5_starts">0..1</var>
<var id="task_2_runs_when_6_starts">0..1</var>
<var id="task_2_runs_when_7_starts">0..1</var>
<var id="task_2_runs_when_8_starts">0..1</var>
<var id="task_3_runs_when_1_starts">0..1</var>
<var id="task_3_runs_when_2_starts">0..1</var>
<var id="task_3_runs_when_4_starts">0..1</var>
<var id="task_3_runs_when_5_starts">0..1</var>
<var id="task_3_runs_when_6_starts">0..1</var>
<var id="task_3_runs_when_7_starts">0..1</var>
<var id="task_3_runs_when_8_starts">0..1</var>
<var id="task_4_runs_when_1_starts">0..1</var>
<var id="task_4_runs_when_2_starts">0..1</var>
<var id="task_4_runs_when_3_starts">0..1</var>
<var id="task_4_runs_when_5_starts">0..1</var>
<var id="task_4_runs_when_6_starts">0..1</var>
<var id="task_4_runs_when_7_starts">0..1</var>
<var id="task_4_runs_when_8_starts">0..1</var>
<var id="task_5_runs_when_1_starts">0..1</var>
<var id="task_5_runs_when_2_starts">0..1</var>
<var id="task_5_runs_when_3_starts">0..1</var>
<var id="task_5_runs_when_4_starts">0..1</var>
<var id="task_5_runs_when_6_starts">0..1</var>
<var id="task_5_runs_when_7_starts">0..1</var>
<var id="task_5_runs_when_8_starts">0..1</var>
<var id="task_6_runs_when_1_starts">0..1</var>
<var id="task_6_runs_when_2_starts">0..1</var>
<var id="task_6_runs_when_3_starts">0..1</var>
<var id="task_6_runs_when_4_starts">0..1</var>
<var id="task_6_runs_when_5_starts">0..1</var>
<var id="task_6_runs_when_7_starts">0..1</var>
<var id="task_6_runs_when_8_starts">0..1</var>
<var id="task_7_runs_when_1_starts">0..1</var>
<var id="task_7_runs_when_2_starts">0..1</var>
<var id="task_7_runs_when_3_starts">0..1</var>
<var id="task_7_runs_when_4_starts">0..1</var>
<var id="task_7_runs_when_5_starts">0..1</var>
<var id="task_7_runs_when_6_starts">0..1</var>
<var id="task_7_runs_when_8_starts">0..1</var>
<var id="task_8_runs_when_1_starts">0..1</var>
<var id="task_8_runs_when_2_starts">0..1</var>
<var id="task_8_runs_when_3_starts">0..1</var>
<var id="task_8_runs_when_4_starts">0..1</var>
<var id="task_8_runs_when_5_starts">0..1</var>
<var id="task_8_runs_when_6_starts">0..1</var>
<var id="task_8_runs_when_7_starts">0..1</var>
</variables>
<constraints>
<intension>iff(task_1_runs_when_2_starts,and(le(start_j1,start_j2),lt(sub(start_j2,start_j1),0)))</intension>
<intension>iff(task_1_runs_when_3_starts,and(le(start_j1,start_j3),lt(sub(start_j3,start_j1),0)))</intension>
<intension>iff(task_1_runs_when_4_starts,and(le(start_j1,start_j4),lt(sub(start_j4,start_j1),0)))</intension>
<intension>iff(task_1_runs_when_5_starts,and(le(start_j1,start_j5),lt(sub(start_j5,start_j1),0)))</intension>
<intension>iff(task_1_runs_when_6_starts,and(le(start_j1,start_j6),lt(sub(start_j6,start_j1),0)))</intension>
<intension>iff(task_1_runs_when_7_starts,and(le(start_j1,start_j7),lt(sub(start_j7,start_j1),0)))</intension>
<intension>iff(task_1_runs_when_8_starts,and(le(start_j1,start_j8),lt(sub(start_j8,start_j1),0)))</intension>
<intension>iff(task_2_runs_when_1_starts,and(le(start_j2,start_j1),lt(sub(start_j1,start_j2),2)))</intension>
<intension>iff(task_2_runs_when_3_starts,and(le(start_j2,start_j3),lt(sub(start_j3,start_j2),2)))</intension>
<intension>iff(task_2_runs_when_4_starts,and(le(start_j2,start_j4),lt(sub(start_j4,start_j2),2)))</intension>
<intension>iff(task_2_runs_when_5_starts,and(le(start_j2,start_j5),lt(sub(start_j5,start_j2),2)))</intension>
<intension>iff(task_2_runs_when_6_starts,and(le(start_j2,start_j6),lt(sub(start_j6,start_j2),2)))</intension>
<intension>iff(task_2_runs_when_7_starts,and(le(start_j2,start_j7),lt(sub(start_j7,start_j2),2)))</intension>
<intension>iff(task_2_runs_when_8_starts,and(le(start_j2,start_j8),lt(sub(start_j8,start_j2),2)))</intension>
<intension>iff(task_3_runs_when_1_starts,and(le(start_j3,start_j1),lt(sub(start_j1,start_j3),4)))</intension>
<intension>iff(task_3_runs_when_2_starts,and(le(start_j3,start_j2),lt(sub(start_j2,start_j3),4)))</intension>
<intension>iff(task_3_runs_when_4_starts,and(le(start_j3,start_j4),lt(sub(start_j4,start_j3),4)))</intension>
<intension>iff(task_3_runs_when_5_starts,and(le(start_j3,start_j5),lt(sub(start_j5,start_j3),4)))</intension>
<intension>iff(task_3_runs_when_6_starts,and(le(start_j3,start_j6),lt(sub(start_j6,start_j3),4)))</intension>
<intension>iff(task_3_runs_when_7_starts,and(le(start_j3,start_j7),lt(sub(start_j7,start_j3),4)))</intension>
<intension>iff(task_3_runs_when_8_starts,and(le(start_j3,start_j8),lt(sub(start_j8,start_j3),4)))</intension>
<intension>iff(task_4_runs_when_1_starts,and(le(start_j4,start_j1),lt(sub(start_j1,start_j4),2)))</intension>
<intension>iff(task_4_runs_when_2_starts,and(le(start_j4,start_j2),lt(sub(start_j2,start_j4),2)))</intension>
<intension>iff(task_4_runs_when_3_starts,and(le(start_j4,start_j3),lt(sub(start_j3,start_j4),2)))</intension>
<intension>iff(task_4_runs_when_5_starts,and(le(start_j4,start_j5),lt(sub(start_j5,start_j4),2)))</intension>
<intension>iff(task_4_runs_when_6_starts,and(le(start_j4,start_j6),lt(sub(start_j6,start_j4),2)))</intension>
<intension>iff(task_4_runs_when_7_starts,and(le(start_j4,start_j7),lt(sub(start_j7,start_j4),2)))</intension>
<intension>iff(task_4_runs_when_8_starts,and(le(start_j4,start_j8),lt(sub(start_j8,start_j4),2)))</intension>
<intension>iff(task_5_runs_when_1_starts,and(le(start_j5,start_j1),lt(sub(start_j1,start_j5),8)))</intension>
<intension>iff(task_5_runs_when_2_starts,and(le(start_j5,start_j2),lt(sub(start_j2,start_j5),8)))</intension>
<intension>iff(task_5_runs_when_3_starts,and(le(start_j5,start_j3),lt(sub(start_j3,start_j5),8)))</intension>
<intension>iff(task_5_runs_when_4_starts,and(le(start_j5,start_j4),lt(sub(start_j4,start_j5),8)))</intension>
<intension>iff(task_5_runs_when_6_starts,and(le(start_j5,start_j6),lt(sub(start_j6,start_j5),8)))</intension>
<intension>iff(task_5_runs_when_7_starts,and(le(start_j5,start_j7),lt(sub(start_j7,start_j5),8)))</intension>
<intension>iff(task_5_runs_when_8_starts,and(le(start_j5,start_j8),lt(sub(start_j8,start_j5),8)))</intension>
<intension>iff(task_6_runs_when_1_starts,and(le(start_j6,start_j1),lt(sub(start_j1,start_j6),4)))</intension>
<intension>iff(task_6_runs_when_2_starts,and(le(start_j6,start_j2),lt(sub(start_j2,start_j6),4)))</intension>
<intension>iff(task_6_runs_when_3_starts,and(le(start_j6,start_j3),lt(sub(start_j3,start_j6),4)))</intension>
<intension>iff(task_6_runs_when_4_starts,and(le(start_j6,start_j4),lt(sub(start_j4,start_j6),4)))</intension>
<intension>iff(task_6_runs_when_5_starts,and(le(start_j6,start_j5),lt(sub(start_j5,start_j6),4)))</intension>
<intension>iff(task_6_runs_when_7_starts,and(le(start_j6,start_j7),lt(sub(start_j7,start_j6),4)))</intension>
<intension>iff(task_6_runs_when_8_starts,and(le(start_j6,start_j8),lt(sub(start_j8,start_j6),4)))</intension>
<intension>iff(task_7_runs_when_1_starts,and(le(start_j7,start_j1),lt(sub(start_j1,start_j7),4)))</intension>
<intension>iff(task_7_runs_when_2_starts,and(le(start_j7,start_j2),lt(sub(start_j2,start_j7),4)))</intension>
<intension>iff(task_7_runs_when_3_starts,and(le(start_j7,start_j3),lt(sub(start_j3,start_j7),4)))</intension>
<intension>iff(task_7_runs_when_4_starts,and(le(start_j7,start_j4),lt(sub(start_j4,start_j7),4)))</intension>
<intension>iff(task_7_runs_when_5_starts,and(le(start_j7,start_j5),lt(sub(start_j5,start_j7),4)))</intension>
<intension>iff(task_7_runs_when_6_starts,and(le(start_j7,start_j6),lt(sub(start_j6,start_j7),4)))</intension>
<intension>iff(task_7_runs_when_8_starts,and(le(start_j7,start_j8),lt(sub(start_j8,start_j7),4)))</intension>
<intension>iff(task_8_runs_when_1_starts,and(le(start_j8,start_j1),lt(sub(start_j1,start_j8),0)))</intension>
<intension>iff(task_8_runs_when_2_starts,and(le(start_j8,start_j2),lt(sub(start_j2,start_j8),0)))</intension>
<intension>iff(task_8_runs_when_3_starts,and(le(start_j8,start_j3),lt(sub(start_j3,start_j8),0)))</intension>
<intension>iff(task_8_runs_when_4_starts,and(le(start_j8,start_j4),lt(sub(start_j4,start_j8),0)))</intension>
<intension>iff(task_8_runs_when_5_starts,and(le(start_j8,start_j5),lt(sub(start_j5,start_j8),0)))</intension>
<intension>iff(task_8_runs_when_6_starts,and(le(start_j8,start_j6),lt(sub(start_j6,start_j8),0)))</intension>
<intension>iff(task_8_runs_when_7_starts,and(le(start_j8,start_j7),lt(sub(start_j7,start_j8),0)))</intension>
<intension>ge(2,add(add(add(mul(task_4_runs_when_3_starts,2),mul(task_5_runs_when_3_starts,1)),mul(task_6_runs_when_3_starts,3)),mul(task_7_runs_when_3_starts,1)))</intension>
<intension>ge(1,add(add(add(mul(task_3_runs_when_4_starts,1),mul(task_5_runs_when_4_starts,1)),mul(task_6_runs_when_4_starts,3)),mul(task_7_runs_when_4_starts,1)))</intension>
<intension>ge(2,add(add(add(mul(task_3_runs_when_5_starts,1),mul(task_4_runs_when_5_starts,2)),mul(task_6_runs_when_5_starts,3)),mul(task_7_runs_when_5_starts,1)))</intension>
<intension>ge(0,add(add(add(mul(task_3_runs_when_6_starts,1),mul(task_4_runs_when_6_starts,2)),mul(task_5_runs_when_6_starts,1)),mul(task_7_runs_when_6_starts,1)))</intension>
<intension>ge(2,add(add(add(mul(task_3_runs_when_7_starts,1),mul(task_4_runs_when_7_starts,2)),mul(task_5_runs_when_7_starts,1)),mul(task_6_runs_when_7_starts,3)))</intension>
<intension>ge(0,add(mul(task_3_runs_when_2_starts,2),mul(task_7_runs_when_2_starts,2)))</intension>
<intension>ge(1,add(mul(task_2_runs_when_3_starts,3),mul(task_7_runs_when_3_starts,2)))</intension>
<intension>ge(1,add(mul(task_2_runs_when_7_starts,3),mul(task_3_runs_when_7_starts,2)))</intension>
<intension>ge(start_j1,0)</intension>
<intension>le(start_j1,0)</intension>
<intension>ge(start_j2,0)</intension>
<intension>le(start_j2,24)</intension>
<intension>ge(start_j3,0)</intension>
<intension>le(start_j3,24)</intension>
<intension>ge(start_j4,0)</intension>
<intension>le(start_j4,24)</intension>
<intension>ge(start_j5,0)</intension>
<intension>le(start_j5,24)</intension>
<intension>ge(start_j6,0)</intension>
<intension>le(start_j6,24)</intension>
<intension>ge(start_j7,0)</intension>
<intension>le(start_j7,24)</intension>
<intension>ge(start_j8,0)</intension>
<intension>le(start_j8,24)</intension>
<intension>le(sub(start_j1,start_j2),0)</intension>
<intension>le(sub(start_j2,start_j3),-2)</intension>
<intension>le(sub(start_j2,start_j5),-2)</intension>
<intension>le(sub(start_j2,start_j6),-2)</intension>
<intension>le(sub(start_j3,start_j4),-4)</intension>
<intension>le(sub(start_j3,start_j6),-4)</intension>
<intension>le(sub(start_j4,start_j6),-2)</intension>
<intension>le(sub(start_j4,start_j7),-2)</intension>
<intension>le(sub(start_j5,start_j7),-8)</intension>
<intension>le(sub(start_j6,start_j8),-4)</intension>
<intension>le(sub(start_j7,start_j8),-4)</intension>
</constraints>
<objectives><minimize>start_j8</minimize></objectives>
</instance>